p cnf 62 2
-1 -2 -3 -4 -5 -7 -8 -9 -12 -13 -14 -15 -17 -18 -19 -20 -21 -24 -26 -27 -28 -29 -31 -32 -33 -34 -35 -37 -38 -39 -41 -42 -43 -44 -45 -46 -47 -48 -49 -52 -53 -54 -56 -57 -58 -59 -60 -62 -63 -64 -66 -67 -68 -69 -70 -71 -72 -73 -74 -75 -76 0
-1 -2 -3 -4 -5 -7 -8 -9 -12 -13 -14 -15 -17 -18 -19 -20 -21 -24 -26 -27 -28 -29 -31 -32 -33 -34 -35 -37 -38 -39 -41 -42 -43 -44 -45 -46 -47 -48 -49 -52 -53 -56 -57 -58 -59 -60 -62 -63 -64 -65 -66 -67 -68 -69 -70 -71 -72 -73 -74 -75 -76 0
